c 1 A1
c 2 C2
c 3 C5
c 4 A4
c 5 C7
c 6 C8
c 7 C9
c 8 A6
c 9 C10
c 10 A3
c 11 C12
c 12 C13
c 13 A11
c 14 C14
c 15 C15
c 16 C16
c 17 C17
c 18 C18
c 19 C19
c 20 C20
c 21 C21
p cnf 21 26
1 0
1 -2 0
1 -10 0
1 -4 0
1 -3 0
1 -8 0
4 -5 0
4 -6 0
4 -7 0
8 -9 0
10 -13 0
10 -11 0
10 -12 0
13 -10 0
11 -10 0
13 -14 0
13 -15 0
13 -16 0
13 -17 0
13 -18 0
13 -19 0
13 -20 0
13 -21 0
9 -20 0
-9 -20 20 0
-17 21 0